This is Ipopt version 3.10.1, running with linear solver mumps.

Number of nonzeros in equality constraint Jacobian...:      177
Number of nonzeros in inequality constraint Jacobian.:        0
Number of nonzeros in Lagrangian Hessian.............:     3324

Total number of variables............................:       90
                     variables with only lower bounds:        0
                variables with lower and upper bounds:       90
                     variables with only upper bounds:        0
Total number of equality constraints.................:       59
Total number of inequality constraints...............:        0
        inequality constraints with only lower bounds:        0
   inequality constraints with lower and upper bounds:        0
        inequality constraints with only upper bounds:        0

iter    objective    inf_pr   inf_du lg(mu)  ||d||  lg(rg) alpha_du alpha_pr  ls
   0 -6.7863146e-04 5.10e-10 3.46e-04  -1.0 0.00e+00    -  0.00e+00 0.00e+00   0
   1 -6.4024397e-04 1.47e-10 4.31e-06  -1.7 1.54e-02    -  1.00e+00 1.00e+00f  1
   2 -5.6192920e-04 4.44e-16 2.13e-05  -2.5 3.99e-02    -  1.00e+00 1.00e+00f  1
   3 -5.6763093e-04 4.44e-16 2.41e-06  -3.8 1.23e-02    -  1.00e+00 1.00e+00f  1
   4 -4.3703278e-04 4.44e-16 6.08e-04  -5.7 5.02e-01    -  3.53e-01 7.64e-02h  4
   5 -5.0841852e-04 2.22e-16 2.13e-04  -5.7 1.98e-02  -2.0 9.68e-01 1.00e+00F  1
   6 -1.5186481e-03 2.77e-13 1.46e-03  -5.7 1.65e-01  -2.5 1.00e+00 7.48e-01f  1
   7 -2.6574621e-03 2.40e-13 7.60e-03  -5.7 4.37e-01  -2.1 9.56e-01 1.34e-01f  1
   8 -3.4752218e-03 1.82e-13 3.38e-03  -5.7 1.20e-01  -1.6 1.00e+00 2.41e-01f  1
   9 -3.4700059e-03 1.82e-13 2.58e-03  -5.7 1.70e-01  -2.1 2.94e-01 9.77e-04f 11
iter    objective    inf_pr   inf_du lg(mu)  ||d||  lg(rg) alpha_du alpha_pr  ls
  10 -3.4600791e-03 1.77e-13 3.10e-03  -5.7 1.97e+01  -1.7 4.66e-03 2.59e-05f 11
  11 -4.1153730e-03 5.22e-13 2.49e-03  -5.7 4.56e-02  -1.3 1.00e+00 4.30e-01f  1
  12 -4.7524481e-03 2.22e-16 2.54e-03  -5.7 1.70e-02  -0.8 1.00e+00 1.00e+00f  1
  13 -5.2322195e-03 2.22e-16 4.06e-03  -5.7 9.84e-02  -1.3 1.00e+00 1.11e-01f  1
  14 -5.2252803e-03 2.22e-16 2.80e-03  -5.7 3.05e-01  -1.8 9.36e-02 4.88e-04f 12
  15 -5.2136274e-03 1.40e-14 9.41e-03  -5.7 2.22e+01  -1.4 5.12e-03 3.60e-05f 11
  16 -6.4351667e-03 1.33e-15 3.45e-03  -5.7 2.98e-02  -0.9 1.00e+00 9.01e-01f  1
  17 -8.2175347e-03 6.72e-13 2.18e-02  -5.7 3.06e-01  -1.4 1.00e+00 8.90e-02f  1
  18 -8.9271285e-03 5.49e-13 7.59e-03  -5.7 5.70e-02  -1.0 1.00e+00 1.83e-01f  1
  19 -1.0036872e-02 5.34e-13 4.07e-02  -5.7 7.55e-01  -1.5 7.83e-01 2.78e-02f  1
iter    objective    inf_pr   inf_du lg(mu)  ||d||  lg(rg) alpha_du alpha_pr  ls
  20 -1.2794849e-02 1.87e-13 6.05e-03  -5.7 7.82e-02  -1.0 1.00e+00 6.50e-01f  1
  21 -1.3581107e-02 1.08e-13 6.71e-03  -5.7 3.07e-02  -0.6 1.00e+00 4.21e-01f  1
  22 -1.5652893e-02 1.23e-12 1.33e-02  -5.7 1.21e-01  -1.1 1.00e+00 2.85e-01f  1
  23 -1.6375294e-02 1.21e-12 8.87e-03  -5.7 3.99e-02  -0.7 1.00e+00 3.13e-01f  1
  24 -1.7600164e-02 1.56e-12 2.03e-02  -5.7 1.68e-01  -1.1 1.00e+00 1.05e-01f  1
  25 -1.8917400e-02 1.80e-12 7.58e-03  -5.7 3.38e-02  -0.7 1.00e+00 4.66e-01f  1
  26 -2.2708738e-02 3.56e-12 1.82e-02  -5.7 1.71e-01  -1.2 1.00e+00 2.23e-01f  1
  27 -2.6412406e-02 1.13e-12 8.01e-03  -5.7 4.70e-02  -0.8 1.00e+00 6.83e-01f  1
  28 -3.7894917e-02 9.91e-13 1.67e-02  -5.7 7.88e-01  -1.2 7.26e-02 1.23e-01f  1
  29 -3.8654601e-02 9.30e-13 4.00e-02  -5.7 9.36e-02  -0.8 6.64e-01 6.15e-02f  1
iter    objective    inf_pr   inf_du lg(mu)  ||d||  lg(rg) alpha_du alpha_pr  ls
  30 -3.8936243e-02 1.10e-12 5.93e-02  -5.7 3.12e+00  -1.3 3.33e-02 6.65e-04f  1
  31 -4.0721697e-02 9.71e-13 5.26e-02  -5.7 1.11e-01  -0.9 1.00e-01 1.17e-01f  1
  32 -5.5049979e-02 8.21e-12 4.51e-02  -5.7 5.77e+00  -1.3 1.34e-02 2.07e-02f  1
  33 -5.7004651e-02 7.79e-12 4.23e-02  -5.7 2.10e-01  -0.9 4.19e-01 5.16e-02f  1
  34 -5.9216440e-02 7.72e-12 5.30e-02  -5.7 2.64e+00  -1.4 5.51e-02 9.70e-03f  1
  35 -6.4701040e-02 4.90e-12 4.50e-02  -5.7 1.06e-01  -1.0 1.00e+00 3.65e-01f  1
  36 -7.4578700e-02 4.47e-12 7.96e-02  -5.7 8.04e-01  -1.4 3.42e-01 8.83e-02f  1
  37 -9.3683645e-02 9.78e-12 1.11e-02  -5.7 1.03e-01  -1.0 1.00e+00 9.48e-01f  1
  38 -1.0143712e-01 1.60e-12 1.08e-02  -5.7 4.07e-02  -0.6 1.00e+00 8.37e-01f  1
  39 -1.2034550e-01 1.00e-12 6.58e-02  -5.7 2.05e-01  -1.1 1.00e+00 3.74e-01f  1
iter    objective    inf_pr   inf_du lg(mu)  ||d||  lg(rg) alpha_du alpha_pr  ls
  40 -1.2158316e-01 8.56e-13 1.30e-01  -5.7 4.36e-02  -0.6 8.73e-01 1.44e-01f  1
  41 -1.2157714e-01 8.56e-13 9.08e-02  -5.7 7.83e-01  -1.1 1.57e-01 1.95e-04f 10
  42 -1.2945808e-01 1.03e-11 5.73e-02  -5.7 5.91e-02  -0.7 1.00e+00 4.75e-01f  1
  43 -1.3277405e-01 5.54e-12 5.95e-02  -5.7 4.57e-01  -1.2 3.26e-01 4.63e-01f  1
  44 -1.4042022e-01 9.99e-12 7.61e-02  -5.7 2.05e-01  -0.7 1.62e-02 2.21e-01f  1
  45 -1.4330739e-01 7.66e-12 8.54e-02  -5.7 5.96e-02  -0.3 7.15e-02 2.33e-01f  1
  46 -1.4678721e-01 1.89e-12 2.37e-02  -5.7 1.96e-02   0.1 1.00e+00 7.53e-01f  1
  47 -1.5277567e-01 1.42e-12 2.63e-02  -5.7 9.31e-02  -0.4 3.74e-01 2.49e-01f  1
  48 -1.5277536e-01 1.42e-12 2.63e-02  -5.7 2.06e+00  -0.8 1.83e-04 6.69e-07f 17
  49 -1.5276794e-01 1.42e-12 1.10e-01  -5.7 2.97e+01  -0.4 2.99e-03 1.58e-06f 11
iter    objective    inf_pr   inf_du lg(mu)  ||d||  lg(rg) alpha_du alpha_pr  ls
  50 -1.5986718e-01 2.11e-15 3.19e-02  -5.7 3.13e-02   0.0 1.00e+00 1.00e+00f  1
  51 -1.6231262e-01 2.00e-15 9.56e-02  -5.7 1.60e-01  -0.5 1.00e+00 5.64e-02f  1
  52 -1.6807093e-01 5.55e-16 3.49e-02  -5.7 2.85e-02  -0.0 1.00e+00 6.33e-01f  1
  53 -2.1176814e-01 3.33e-16 5.12e-02  -5.7 1.61e-01  -0.5 6.63e-01 5.85e-01f  1
  54 -2.4343919e-01 4.44e-16 5.89e-02  -5.7 7.02e-02  -0.1 8.66e-01 6.72e-01f  1
  55 -1.9963280e-01 4.44e-16 5.04e-02  -5.7 7.02e+02  -0.6 1.04e-04 1.04e-04s 10
  56 -2.0652225e-01 4.44e-16 1.01e-01  -5.7 6.88e-02  -0.1 1.00e+00 0.00e+00S 10
  57 -3.0705642e-01 4.44e-16 1.23e-01  -5.7 1.52e+00  -0.6 8.11e-02 8.75e-02f  1
  58 -3.7483089e-01 2.22e-16 2.51e-01  -5.7 1.47e-01  -0.2 1.00e+00 5.81e-01f  1
  59 -3.8214365e-01 2.22e-16 1.30e-01  -5.7 6.58e-02   0.2 1.00e+00 8.91e-02f  1
iter    objective    inf_pr   inf_du lg(mu)  ||d||  lg(rg) alpha_du alpha_pr  ls
  60 -4.6721788e-01 2.22e-16 1.08e-01  -5.7 1.72e-01  -0.2 6.00e-01 4.98e-01f  1
  61 -5.1665762e-01 2.22e-16 1.86e-01  -5.7 7.05e-02   0.2 1.00e+00 5.83e-01f  1
  62 -7.0670822e-01 4.95e-11 1.28e+00  -5.7 8.04e-01  -0.3 9.45e-01 1.47e-01f  1
  63 -7.6156487e-01 6.70e-11 3.19e+00  -5.7 9.67e-01   0.1 1.00e+00 2.00e-02f  1
  64 -3.6885435e-01 2.22e-16 4.49e+00  -5.7 3.87e-01    -  1.08e-02 1.00e+00h  1
  65 -3.7250660e-01 2.22e-16 4.07e+00  -5.7 5.02e-01    -  9.83e-02 6.25e-02f  1
  66 -3.7945079e-01 2.22e-16 4.02e+00  -5.7 2.10e-01  -0.3 1.36e-03 5.51e-02f  1
  67 -3.7932259e-01 2.22e-16 3.72e+00  -5.7 1.11e+00  -0.8 7.52e-02 2.73e-04h 10
  68 -4.1939744e-01 6.22e-15 2.06e+00  -5.7 8.09e-01  -1.3 9.26e-01 1.57e-01f  1
  69 -5.4443488e-01 4.84e-11 2.01e+00  -5.7 7.25e+00  -0.9 7.74e-03 2.63e-02f  1
iter    objective    inf_pr   inf_du lg(mu)  ||d||  lg(rg) alpha_du alpha_pr  ls
  70 -5.4442203e-01 4.84e-11 2.14e+00  -5.7 4.68e-01  -0.5 9.77e-03 2.77e-05f  8
  71 -6.3672239e-01 4.47e-11 1.93e+00  -5.7 3.09e+00    -  3.82e-02 7.72e-02f  1
  72 -5.5953096e-01 2.22e-16 9.88e-01  -5.7 1.22e-01    -  4.22e-01 1.00e+00h  1
  73 -5.4843296e-01 2.22e-16 6.39e-01  -5.7 1.25e-01    -  9.11e-01 4.27e-01h  1
  74 -5.4822297e-01 2.22e-16 6.58e-01  -5.7 1.14e-01    -  1.00e+00 7.81e-03h  8
  75 -7.9733291e-01 8.00e-11 5.56e-01  -5.7 8.55e-01  -0.9 3.30e-01 3.15e-01f  1
  76 -7.9733184e-01 8.00e-11 7.88e-01  -5.7 1.20e-01    -  9.60e-01 3.81e-06f 19
  77 -8.1481103e-01 7.24e-11 5.38e-01  -5.7 7.64e-02   0.4 1.91e-01 9.46e-02f  1
  78 -8.2384158e-01 1.98e-10 6.72e-01  -5.7 2.21e-02   0.8 4.02e-01 1.62e-01f  1
  79 -9.1157058e-01 1.44e-10 7.32e-01  -5.7 1.09e-01   0.4 9.95e-01 2.76e-01f  1
iter    objective    inf_pr   inf_du lg(mu)  ||d||  lg(rg) alpha_du alpha_pr  ls
  80 -9.5425028e-01 9.36e-11 8.26e-01  -5.7 3.55e-02   0.8 7.13e-01 3.48e-01f  1
  81 -9.9968462e-01 9.03e-11 1.98e+00  -5.7 3.36e-01   0.3 1.00e+00 3.55e-02f  1
  82 -9.9962858e-01 8.53e-11 1.14e+00  -5.7 3.72e-04    -  3.52e-01 5.52e-02f  4
  83 -9.9968870e-01 7.85e-11 9.44e-01  -5.7 3.69e-04    -  1.00e+00 7.93e-02f  1
  84 -9.9983417e-01 2.22e-16 1.27e-08  -5.7 6.52e-05    -  1.00e+00 1.00e+00f  1
  85 -1.0000001e+00 5.82e-14 1.59e-07  -8.6 2.05e-05    -  1.00e+00 1.00e+00f  1
  86 -1.0000001e+00 5.79e-11 2.60e-01  -8.6 7.02e-09    -  7.65e-01 1.00e+00f  1
  87 -1.0000001e+00 4.22e-15 1.72e-13  -8.6 2.88e-09    -  1.00e+00 1.00e+00h  1

Number of Iterations....: 87

                                   (scaled)                 (unscaled)
Objective...............:  -1.0000001055225123e+00   -1.0000001055225123e+00
Dual infeasibility......:   1.7208456881689926e-13    1.7208456881689926e-13
Constraint violation....:   4.2188474935755949e-15    4.2188474935755949e-15
Complementarity.........:   2.7887694920238381e-09    2.7887694920238381e-09
Overall NLP error.......:   2.7887694920238381e-09    2.7887694920238381e-09


Number of objective function evaluations             = 230
Number of objective gradient evaluations             = 88
Number of equality constraint evaluations            = 230
Number of inequality constraint evaluations          = 0
Number of equality constraint Jacobian evaluations   = 1
Number of inequality constraint Jacobian evaluations = 0
Number of Lagrangian Hessian evaluations             = 87
Total CPU secs in IPOPT (w/o function evaluations)   =      0.200
Total CPU secs in NLP function evaluations           =      3.150

EXIT: Optimal Solution Found.
